
Gurobi 7.0.1 (win64) logging started 03/26/17 17:53:09

Changed value of parameter LogFile to ProvinceRunOutputs/log_prov14.log
   Prev: gurobi.log  Default: 
Optimize a model with 1410 rows, 41291 columns and 83016 nonzeros
Variable types: 0 continuous, 41291 integer (41291 binary)
Coefficient statistics:
  Matrix range     [1e+00, 1e+05]
  Objective range  [6e-01, 3e+02]
  Bounds range     [1e+00, 1e+00]
  RHS range        [1e+00, 6e+00]
Found heuristic solution: objective 82227.1
Presolve removed 548 rows and 9612 columns
Presolve time: 0.13s
Presolved: 862 rows, 31679 columns, 63511 nonzeros

MIP start did not produce a new incumbent solution
MIP start violates constraint R0 by 629999.000000000

Variable types: 0 continuous, 31679 integer (31679 binary)

Root relaxation: objective 1.327488e+04, 561 iterations, 0.01 seconds

    Nodes    |    Current Node    |     Objective Bounds      |     Work
 Expl Unexpl |  Obj  Depth IntInf | Incumbent    BestBd   Gap | It/Node Time

     0     0 13274.8783    0    9 82227.1456 13274.8783  83.9%     -    0s
H    0     0                    14123.535816 13274.8783  6.01%     -    0s
     0     0 13331.2081    0   82 14123.5358 13331.2081  5.61%     -    0s
H    0     0                    13873.354125 13331.2081  3.91%     -    0s
     0     0 13470.2748    0   36 13873.3541 13470.2748  2.91%     -    0s
     0     0 13846.9815    0  108 13873.3541 13846.9815  0.19%     -    0s
     0     0     cutoff    0      13873.3541 13873.3541  0.00%     -    0s

Cutting planes:
  Cover: 15
  Clique: 535
  MIR: 12

Explored 0 nodes (989 simplex iterations) in 0.77 seconds
Thread count was 4 (of 4 available processors)

Solution count 3: 13873.4 14123.5 82227.1 
Pool objective bound 13873.4

Optimal solution found (tolerance 1.00e-04)
Best objective 1.387335412479e+04, best bound 1.387335412479e+04, gap 0.0000%
Optimize a model with 1448 rows, 41291 columns and 83130 nonzeros
Variable types: 0 continuous, 41291 integer (41291 binary)
Coefficient statistics:
  Matrix range     [1e+00, 1e+05]
  Objective range  [6e-01, 3e+02]
  Bounds range     [1e+00, 1e+00]
  RHS range        [1e+00, 6e+00]
Found heuristic solution: objective 82227.1
Presolve removed 548 rows and 9612 columns
Presolve time: 0.12s
Presolved: 900 rows, 31679 columns, 63625 nonzeros

MIP start did not produce a new incumbent solution
MIP start violates constraint R0 by 629999.000000000

Variable types: 0 continuous, 31679 integer (31679 binary)

Root relaxation: objective 1.327488e+04, 563 iterations, 0.01 seconds

    Nodes    |    Current Node    |     Objective Bounds      |     Work
 Expl Unexpl |  Obj  Depth IntInf | Incumbent    BestBd   Gap | It/Node Time

     0     0 13274.8783    0    9 82227.1456 13274.8783  83.9%     -    0s
H    0     0                    14123.535816 13274.8783  6.01%     -    0s
     0     0 13407.9637    0   69 14123.5358 13407.9637  5.07%     -    0s
H    0     0                    13900.031498 13407.9637  3.54%     -    0s
H    0     0                    13873.354125 13407.9637  3.35%     -    0s
     0     0 13407.9637    0   69 13873.3541 13407.9637  3.35%     -    0s
     0     0 13582.1525    0   94 13873.3541 13582.1525  2.10%     -    0s
     0     0 13846.9815    0  108 13873.3541 13846.9815  0.19%     -    0s

Cutting planes:
  Cover: 17
  Clique: 539
  MIR: 15

Explored 0 nodes (1096 simplex iterations) in 0.89 seconds
Thread count was 4 (of 4 available processors)

Solution count 4: 13873.4 13900 14123.5 82227.1 
Pool objective bound 13873.4

Optimal solution found (tolerance 1.00e-04)
Best objective 1.387335412479e+04, best bound 1.387335412479e+04, gap 0.0000%
Optimize a model with 1546 rows, 41291 columns and 83424 nonzeros
Variable types: 0 continuous, 41291 integer (41291 binary)
Coefficient statistics:
  Matrix range     [1e+00, 1e+05]
  Objective range  [6e-01, 3e+02]
  Bounds range     [1e+00, 1e+00]
  RHS range        [1e+00, 6e+00]
Found heuristic solution: objective 97561.7
Presolve removed 548 rows and 9612 columns
Presolve time: 0.12s
Presolved: 998 rows, 31679 columns, 63919 nonzeros

MIP start did not produce a new incumbent solution
MIP start violates constraint R0 by 629999.000000000

Variable types: 0 continuous, 31679 integer (31679 binary)

Root relaxation: objective 1.339819e+04, 617 iterations, 0.01 seconds

    Nodes    |    Current Node    |     Objective Bounds      |     Work
 Expl Unexpl |  Obj  Depth IntInf | Incumbent    BestBd   Gap | It/Node Time

     0     0 13398.1852    0   11 97561.6597 13398.1852  86.3%     -    0s
H    0     0                    14324.085056 13398.1852  6.46%     -    0s
H    0     0                    14123.535816 13398.1852  5.14%     -    0s
     0     0 13518.4075    0  194 14123.5358 13518.4075  4.28%     -    0s
H    0     0                    14044.764369 13518.4075  3.75%     -    0s
     0     0 13886.3281    0  224 14044.7644 13886.3281  1.13%     -    0s
     0     0 13886.3281    0  224 14044.7644 13886.3281  1.13%     -    0s
     0     0     cutoff    0      14044.7644 14044.7644  0.00%     -    0s

Cutting planes:
  Cover: 18
  Clique: 469
  MIR: 13
  Zero half: 1

Explored 0 nodes (1273 simplex iterations) in 0.81 seconds
Thread count was 4 (of 4 available processors)

Solution count 4: 14044.8 14123.5 14324.1 97561.7 
Pool objective bound 14044.8

Optimal solution found (tolerance 1.00e-04)
Best objective 1.404476436945e+04, best bound 1.404476436945e+04, gap 0.0000%
Optimize a model with 1557 rows, 41291 columns and 83457 nonzeros
Variable types: 0 continuous, 41291 integer (41291 binary)
Coefficient statistics:
  Matrix range     [1e+00, 1e+05]
  Objective range  [6e-01, 3e+02]
  Bounds range     [1e+00, 1e+00]
  RHS range        [1e+00, 6e+00]
Found heuristic solution: objective 97561.7
Presolve removed 548 rows and 9612 columns
Presolve time: 0.14s
Presolved: 1009 rows, 31679 columns, 63952 nonzeros

MIP start did not produce a new incumbent solution
MIP start violates constraint R0 by 629999.000000000

Variable types: 0 continuous, 31679 integer (31679 binary)

Root relaxation: objective 1.339819e+04, 619 iterations, 0.01 seconds

    Nodes    |    Current Node    |     Objective Bounds      |     Work
 Expl Unexpl |  Obj  Depth IntInf | Incumbent    BestBd   Gap | It/Node Time

     0     0 13398.1852    0   11 97561.6597 13398.1852  86.3%     -    0s
H    0     0                    14324.085056 13398.1852  6.46%     -    0s
H    0     0                    14086.912967 13398.1852  4.89%     -    0s
H    0     0                    14044.764369 13398.1852  4.60%     -    0s
     0     0 13541.8802    0  102 14044.7644 13541.8802  3.58%     -    0s
     0     0 13886.1127    0  128 14044.7644 13886.1127  1.13%     -    0s
     0     0     cutoff    0      14044.7644 14044.7644  0.00%     -    0s

Cutting planes:
  Cover: 17
  Clique: 485
  MIR: 14

Explored 0 nodes (1252 simplex iterations) in 0.81 seconds
Thread count was 4 (of 4 available processors)

Solution count 4: 14044.8 14086.9 14324.1 97561.7 
Pool objective bound 14044.8

Optimal solution found (tolerance 1.00e-04)
Best objective 1.404476436945e+04, best bound 1.404476436945e+04, gap 0.0000%
Optimize a model with 1734 rows, 41291 columns and 83988 nonzeros
Variable types: 0 continuous, 41291 integer (41291 binary)
Coefficient statistics:
  Matrix range     [1e+00, 1e+05]
  Objective range  [6e-01, 3e+02]
  Bounds range     [1e+00, 1e+00]
  RHS range        [1e+00, 6e+00]
Found heuristic solution: objective 98446.4
Presolve removed 548 rows and 9612 columns
Presolve time: 0.13s
Presolved: 1186 rows, 31679 columns, 64483 nonzeros

MIP start did not produce a new incumbent solution
MIP start violates constraint R0 by 629999.000000000

Variable types: 0 continuous, 31679 integer (31679 binary)

Root relaxation: objective 1.343954e+04, 714 iterations, 0.01 seconds

    Nodes    |    Current Node    |     Objective Bounds      |     Work
 Expl Unexpl |  Obj  Depth IntInf | Incumbent    BestBd   Gap | It/Node Time

     0     0 13439.5415    0   81 98446.3748 13439.5415  86.3%     -    0s
H    0     0                    14123.535816 13439.5415  4.84%     -    0s
H    0     0                    14096.858443 13439.5415  4.66%     -    0s
     0     0 13878.8603    0  320 14096.8584 13878.8603  1.55%     -    0s
H    0     0                    14083.171969 13878.8603  1.45%     -    0s
     0     0 14021.1031    0  231 14083.1720 14021.1031  0.44%     -    0s
H    0     0                    14082.713892 14021.1031  0.44%     -    0s
     0     0 14075.1152    0  265 14082.7139 14075.1152  0.05%     -    0s
     0     0 14077.5043    0  217 14082.7139 14077.5043  0.04%     -    1s

Explored 0 nodes (2019 simplex iterations) in 1.18 seconds
Thread count was 4 (of 4 available processors)

Solution count 5: 14082.7 14083.2 14096.9 ... 98446.4
Pool objective bound 14082.7

Optimal solution found (tolerance 1.00e-04)
Best objective 1.408271389162e+04, best bound 1.408271389162e+04, gap 0.0000%
